CMD:
./solvers/bin/cadical --plain --no-reduce -t 1600 ./data/cnfs//intel038/intel038.45.cnf

c --- [ banner ] -------------------------------------------------------------
c 
c CaDiCaL SAT Solver
c Copyright (c) 2016-2024
c A. Biere, M. Fleury, N. Froleyks, K. Fazekas, F. Pollitt, T. Faller
c JKU Linz, University of Freiburg, TU Wien
c 
c Version 2.1.3 5296d3d2a9bf48c154ab2acb5e44625776d821bf
c g++ (Gentoo 12.3.1_p20230526 p2) 12.3.1 20230526 -Wall -Wextra -O3 -DNDEBUG
c Sat Aug 9 07:26:21 PDT 2025 Linux cedar2.int.cedar.computecanada.ca 5.14.0-362.24.2.el9_3.x86_64 x86_64
c 
c --- [ limit ] --------------------------------------------------------------
c 
c setting time limit to 1600 seconds real time (due to '-t 1600')
c 
c --- [ parsing input ] ------------------------------------------------------
c 
c reading DIMACS file from './data/cnfs//intel038/intel038.45.cnf'
c opening file to read './data/cnfs//intel038/intel038.45.cnf'
c found 'p cnf 5008991 13769404' header
c parsed 13769404 clauses in 2.75 seconds process time
c 
c --- [ options ] ------------------------------------------------------------
c 
c   --compact=false                (different from default 'true')
c   --decompose=false              (different from default 'true')
c   --deduplicate=false            (different from default 'true')
c   --elim=false                   (different from default 'true')
c   --probe=false                  (different from default 'true')
c   --reduce=false                 (different from default 'true')
c   --subsume=false                (different from default 'true')
c   --ternary=false                (different from default 'true')
c   --transred=false               (different from default 'true')
c   --vivify=false                 (different from default 'true')
c 
c --- [ solving ] ------------------------------------------------------------
c 
c time measured in process time since initialization
c 
c  seconds    reductions  redundant   irredundant
c          MB     restarts       trail          variables
c            level   conflicts       glue             remaining
c 
c *  2.75 2169  0 0   0    0    0  0% 0 13524108 3421929 68%
c {  2.93 2185  0 0   0    0    0  0% 0 13524108 3421929 68%
c i  2.94 2185 5344 0   0    1    0 35% 0 13524108 3421925 68%
c i  2.94 2185 5344 0   0    2    0 35% 0 13524108 3421921 68%
c i  2.95 2185 5344 0   0    3    0 35% 0 13524108 3421909 68%
c i  2.95 2185 5344 0   1    4    0 35% 0 13524108 3421897 68%
c i  2.95 2185 5344 0   1    5    0 35% 0 13524108 3421893 68%
c i  2.96 2185 5344 0   1    6    0 35% 0 13524108 3416712 68%
c i  2.97 2185 5340 0   2   13    5 35% 1 13524108 3415686 68%
c i  2.97 2185 5335 0   2   15    6 35% 1 13524108 3413216 68%
c i  2.97 2185 5338 0   2   17    7 35% 1 13524108 3413215 68%
c i  2.98 2185 5343 0   2   18    7 35% 1 13524108 3413214 68%
c i  2.98 2185 5347 0   2   19    7 35% 1 13524108 3413213 68%
c i  2.98 2185 5350 0   2   20    7 35% 1 13524108 3413212 68%
c i  2.99 2185 5353 0   2   21    7 35% 1 13524108 3413211 68%
c i  2.99 2185 5356 0   2   22    7 35% 1 13524108 3413210 68%
c i  2.99 2185 5359 0   2   23    7 35% 1 13524108 3413209 68%
c i  3.00 2185 5362 0   2   24    7 35% 0 13524108 3413208 68%
c i  3.00 2185 5364 0   2   25    7 35% 0 13524108 3413207 68%
c i  3.00 2185 5367 0   2   26    7 35% 0 13524108 3413206 68%
c 
c  seconds      reductions  redundant   irredundant
c          MB       restarts       trail          variables
c             level    conflicts       glue             remaining
c 
c i  3.01 2185 5369 0   2   27    7 35% 0 13524108 3413205 68%
c i  3.01 2185 5371 0   2   28    7 35% 0 13524108 3413204 68%
c i  3.01 2185 5373 0   2   29    7 35% 0 13524108 3413203 68%
c i  3.02 2185 5375 0   2   30    7 35% 0 13524108 3413202 68%
c i  3.02 2185 5376 0   2   31    7 35% 0 13524108 3413201 68%
c i  3.02 2185 5378 0   2   32    7 35% 0 13524108 3413200 68%
c i  3.03 2185 5380 0   2   33    7 35% 0 13524108 3413199 68%
c i  3.03 2185 5381 0   2   34    7 35% 0 13524108 3413198 68%
c i  3.03 2185 5383 0   2   35    7 35% 0 13524108 3413197 68%
c i  3.04 2185 5384 0   2   36    7 35% 0 13524108 3413196 68%
c i  3.05 2185 5385 0   2   37    7 35% 0 13524108 3413195 68%
c i  3.05 2185 5387 0   2   38    7 35% 0 13524108 3413194 68%
c i  3.05 2185 5388 0   2   39    7 35% 0 13524108 3413193 68%
c i  3.06 2185 5389 0   2   40    7 35% 0 13524108 3413192 68%
c i  3.06 2185 5391 0   2   41    7 35% 0 13524108 3413191 68%
c i  3.06 2185 5392 0   2   42    7 35% 0 13524108 3413190 68%
c i  3.07 2185 5393 0   2   43    7 35% 0 13524108 3413189 68%
c i  3.07 2185 5394 0   2   44    7 35% 0 13524108 3413188 68%
c i  3.07 2185 5395 0   2   45    7 35% 0 13524108 3413187 68%
c i  3.08 2185 5396 0   2   46    7 35% 0 13524108 3413186 68%
c 
c  seconds      reductions  redundant   irredundant
c          MB       restarts       trail          variables
c             level    conflicts       glue             remaining
c 
c i  3.08 2185 5397 0   2   47    7 35% 0 13524108 3413185 68%
c i  3.08 2185 5398 0   2   48    7 35% 0 13524108 3413184 68%
c i  3.09 2185 5399 0   2   49    7 35% 0 13524108 3413183 68%
c i  3.09 2185 5400 0   2   50    7 35% 0 13524108 3413182 68%
... skipped 582862 lines ...
v -5008579 -5008580 -5008581 -5008582 -5008583 -5008584 -5008585 -5008586
v -5008587 -5008588 -5008589 -5008590 -5008591 -5008592 -5008593 -5008594
v -5008595 -5008596 -5008597 -5008598 -5008599 -5008600 -5008601 -5008602
v -5008603 -5008604 -5008605 5008606 -5008607 -5008608 -5008609 -5008610
v -5008611 -5008612 -5008613 -5008614 -5008615 -5008616 -5008617 -5008618
v -5008619 -5008620 -5008621 -5008622 -5008623 -5008624 -5008625 -5008626
v 5008627 -5008628 -5008629 -5008630 -5008631 -5008632 -5008633 -5008634
v -5008635 -5008636 -5008637 -5008638 -5008639 -5008640 -5008641 -5008642
v -5008643 -5008644 -5008645 -5008646 -5008647 5008648 -5008649 -5008650
v -5008651 -5008652 -5008653 -5008654 -5008655 -5008656 -5008657 -5008658
v -5008659 -5008660 -5008661 -5008662 -5008663 -5008664 -5008665 -5008666
v -5008667 -5008668 -5008669 -5008670 -5008671 -5008672 -5008673 -5008674
v -5008675 -5008676 -5008677 -5008678 -5008679 -5008680 -5008681 -5008682
v -5008683 -5008684 -5008685 -5008686 -5008687 -5008688 -5008689 -5008690
v -5008691 -5008692 -5008693 -5008694 -5008695 -5008696 -5008697 -5008698
v -5008699 -5008700 -5008701 -5008702 -5008703 -5008704 -5008705 -5008706
v -5008707 -5008708 -5008709 -5008710 5008711 -5008712 -5008713 -5008714
v -5008715 -5008716 -5008717 -5008718 -5008719 -5008720 -5008721 -5008722
v -5008723 -5008724 -5008725 -5008726 -5008727 -5008728 -5008729 -5008730
v -5008731 5008732 -5008733 -5008734 -5008735 -5008736 -5008737 -5008738
v -5008739 -5008740 -5008741 -5008742 -5008743 -5008744 -5008745 -5008746
v -5008747 -5008748 -5008749 -5008750 -5008751 -5008752 5008753 -5008754
v -5008755 -5008756 -5008757 -5008758 -5008759 -5008760 -5008761 -5008762
v -5008763 -5008764 -5008765 -5008766 -5008767 -5008768 -5008769 -5008770
v -5008771 -5008772 -5008773 5008774 -5008775 -5008776 -5008777 -5008778
v -5008779 -5008780 -5008781 -5008782 -5008783 -5008784 -5008785 -5008786
v -5008787 -5008788 -5008789 -5008790 -5008791 -5008792 -5008793 -5008794
v -5008795 -5008796 -5008797 -5008798 -5008799 -5008800 -5008801 -5008802
v -5008803 -5008804 -5008805 -5008806 -5008807 -5008808 -5008809 -5008810
v -5008811 -5008812 -5008813 -5008814 -5008815 -5008816 -5008817 -5008818
v -5008819 -5008820 -5008821 -5008822 -5008823 -5008824 -5008825 -5008826
v -5008827 -5008828 -5008829 -5008830 -5008831 -5008832 -5008833 -5008834
v -5008835 -5008836 -5008837 -5008838 -5008839 -5008840 -5008841 -5008842
v -5008843 -5008844 -5008845 -5008846 -5008847 -5008848 5008849 -5008850
v -5008851 -5008852 -5008853 -5008854 -5008855 -5008856 -5008857 -5008858
v -5008859 -5008860 -5008861 -5008862 -5008863 -5008864 -5008865 -5008866
v -5008867 -5008868 -5008869 -5008870 -5008871 -5008872 -5008873 -5008874
v -5008875 -5008876 -5008877 -5008878 -5008879 -5008880 -5008881 -5008882
v -5008883 -5008884 -5008885 -5008886 -5008887 -5008888 -5008889 -5008890
v -5008891 -5008892 -5008893 -5008894 -5008895 -5008896 -5008897 -5008898
v -5008899 -5008900 -5008901 -5008902 -5008903 -5008904 -5008905 -5008906
v -5008907 -5008908 -5008909 -5008910 -5008911 -5008912 -5008913 -5008914
v -5008915 -5008916 -5008917 -5008918 -5008919 -5008920 5008921 -5008922
v -5008923 -5008924 -5008925 -5008926 -5008927 -5008928 -5008929 -5008930
v -5008931 -5008932 -5008933 -5008934 -5008935 -5008936 -5008937 -5008938
v -5008939 -5008940 -5008941 -5008942 -5008943 -5008944 -5008945 -5008946
v -5008947 -5008948 -5008949 -5008950 -5008951 -5008952 -5008953 -5008954
v -5008955 -5008956 -5008957 -5008958 -5008959 -5008960 -5008961 -5008962
v -5008963 -5008964 -5008965 -5008966 -5008967 -5008968 -5008969 -5008970
v -5008971 -5008972 -5008973 -5008974 -5008975 -5008976 -5008977 -5008978
v -5008979 -5008980 -5008981 -5008982 -5008983 -5008984 -5008985 -5008986
v -5008987 -5008988 -5008989 5008990 -5008991 0
c 
c --- [ run-time profiling ] -------------------------------------------------
c 
c process time taken by individual solving procedures
c (percentage relative to process time for solving)
c 
c        11.46  100.00% search
c         7.68   66.99% unstable
c         3.61   31.49% stable
c         2.75   24.01% parse
c         0.17    1.52% lucky
c         0.00    0.00% simplify
c   =================================
c        11.46   79.21% solve
c 
c last line shows process time for solving
c (percentage relative to total process time)
c 
c --- [ statistics ] ---------------------------------------------------------
c 
c chronological:              1156        64.15 %  of conflicts
c conflicts:                  1802       157.26    per second
c decisions:               2516087    219572.96    per second
c fixed:                   1648093        32.90 %  of all variables
c learned:                    1649        91.51 %  per conflict
c learned_lits:              27235       100.00 %  learned literals
c minimized:                     0         0.00 %  learned literals
c shrunken:                   6111        22.44 %  learned literals
c minishrunken:               3003        11.03 %  learned literals
c otfs:                         62         3.44 %  of conflict
c propagations:           70452745         6.15 M  per second
c rephased:                      1      1802.00    interval
c restarts:                    208         8.66    interval
c stabilizing:                   1        44.51 %  of conflicts
c subsumed:                     28         0.00 %  of all clauses
c strengthened:                 62         0.00 %  of all clauses
c 
c seconds are measured in process time for solving
c 
c --- [ resources ] ----------------------------------------------------------
c 
c total process time since initialization:        14.47    seconds
c total real time since initialization:           14.59    seconds
c maximum resident set size of process:         2224.45    MB
c 
c --- [ shutting down ] ------------------------------------------------------
c 
c exit 10
